
Gurobi 10.0.1 (linux64) logging started Wed May 31 15:26:25 2023

Set parameter LogFile to value "logFiles/A-2L-C/A-2L-6U-23F-15V-365D-basic.log"
Gurobi Optimizer version 10.0.1 build v10.0.1rc0 (linux64)

CPU model: Intel(R) Xeon(R) Gold 5115 CPU @ 2.40GHz, instruction set [SSE2|AVX|AVX2|AVX512]
Thread count: 20 physical cores, 40 logical processors, using up to 20 threads

Optimize a model with 158996 rows, 1534432 columns and 11143900 nonzeros
Model fingerprint: 0x211f7b48
Variable types: 3323 continuous, 1531109 integer (1531109 binary)
Coefficient statistics:
  Matrix range     [1e+00, 2e+05]
  Objective range  [4e+01, 3e+07]
  Bounds range     [1e+00, 1e+00]
  RHS range        [1e+00, 8e+06]
Presolve removed 106686 rows and 70793 columns (presolve time = 5s) ...
Presolve removed 108502 rows and 70796 columns (presolve time = 10s) ...
Presolve removed 108502 rows and 70796 columns (presolve time = 15s) ...
Presolve removed 108502 rows and 70798 columns (presolve time = 20s) ...
Presolve removed 108502 rows and 70798 columns (presolve time = 25s) ...
Presolve removed 108502 rows and 70798 columns (presolve time = 30s) ...
Presolve removed 108502 rows and 70798 columns (presolve time = 35s) ...
Presolve removed 108374 rows and 70670 columns
Presolve time: 35.11s
Presolved: 50622 rows, 1463762 columns, 8225874 nonzeros
Variable types: 3378 continuous, 1460384 integer (1460323 binary)
Deterministic concurrent LP optimizer: primal simplex, dual simplex, and barrier
Showing barrier log only...

Root barrier log...

Elapsed ordering time = 5s
Ordering time: 5.01s

Barrier statistics:
 AA' NZ     : 3.849e+06
 Factor NZ  : 4.792e+07 (roughly 1.0 GB of memory)
 Factor Ops : 2.194e+11 (roughly 1 second per iteration)
 Threads    : 17

                  Objective                Residual
Iter       Primal          Dual         Primal    Dual     Compl     Time
   0  -2.94558826e+17  7.03084218e+12  3.00e+10 5.95e+04  5.00e+11    56s
   1  -6.19221790e+16  1.30854553e+13  6.36e+09 4.42e+05  1.07e+11    57s
   2  -8.89710552e+15  1.39756140e+13  9.20e+08 1.11e+03  1.55e+10    58s
   3  -1.29083418e+14  9.14227724e+12  1.33e+07 1.05e+01  2.29e+08    60s

Barrier performed 3 iterations in 60.04 seconds (77.04 work units)
Time limit reached



Root relaxation: time limit, 0 iterations, 18.23 seconds (12.85 work units)

Explored 1 nodes (0 simplex iterations) in 60.13 seconds (66.66 work units)
Thread count was 20 (of 40 available processors)

Solution count 0

Time limit reached
Best objective -, best bound 8.027858929677e+12, gap -
IIS computation: initial model status unknown, solving to determine model status
Presolve removed 106686 rows and 70795 columns (presolve time = 5s) ...
Presolve removed 108502 rows and 70798 columns (presolve time = 10s) ...
Presolve removed 108502 rows and 70798 columns (presolve time = 15s) ...
Presolve removed 108502 rows and 70798 columns (presolve time = 20s) ...
Presolve removed 108502 rows and 70798 columns (presolve time = 26s) ...
Presolve removed 108502 rows and 70798 columns (presolve time = 30s) ...
Presolve removed 108502 rows and 70798 columns (presolve time = 35s) ...
Presolve removed 108374 rows and 70670 columns
Presolve time: 35.13s
Presolved: 50622 rows, 1463762 columns, 8225874 nonzeros
Variable types: 3378 continuous, 1460384 integer (1460323 binary)
Deterministic concurrent LP optimizer: primal simplex, dual simplex, and barrier
Showing barrier log only...

Root barrier log...

Ordering time: 4.90s

Barrier statistics:
 AA' NZ     : 3.849e+06
 Factor NZ  : 4.792e+07 (roughly 1.0 GB of memory)
 Factor Ops : 2.194e+11 (roughly 1 second per iteration)
 Threads    : 18

                  Objective                Residual
Iter       Primal          Dual         Primal    Dual     Compl     Time
   0  -0.00000000e+00  5.56080541e+05  3.00e+10 0.00e+00  3.81e+04    57s
   1  -0.00000000e+00  9.98114345e+05  6.26e+09 3.22e-02  7.99e+03    58s
   2  -0.00000000e+00  1.04843794e+06  3.73e+08 3.00e-04  4.79e+02    59s
   3  -0.00000000e+00  6.07260338e+05  1.03e+07 3.36e-06  1.35e+01    61s

Barrier performed 3 iterations in 60.61 seconds (76.95 work units)
Time limit reached



Root relaxation: time limit, 75342 iterations, 17.97 seconds (15.21 work units)

    Nodes    |    Current Node    |     Objective Bounds      |     Work
 Expl Unexpl |  Obj  Depth IntInf | Incumbent    BestBd   Gap | It/Node Time

     0     0          -    0               -   -0.00000      -     -   60s

Explored 1 nodes (75342 simplex iterations) in 60.68 seconds (68.91 work units)
Thread count was 20 (of 40 available processors)

Solution count 0

Time limit reached
Best objective -, best bound -0.000000000000e+00, gap -
IIS runtime: 60.71 seconds (68.91 work units)
